
Gurobi 10.0.1 (win64) logging started Wed Apr 29 00:15:15 2026

Set parameter LogFile to value "D:\Project_Code\Paper\DP_LBBD_1\DP_lbbd\Algorithm\Results\mip_v1\small\exp_3f_15j_seed1\log\exp_3f_15j_seed1_gurobi.log"
Set parameter LogToConsole to value 0
Gurobi Optimizer version 10.0.1 build v10.0.1rc0 (win64)

CPU model: Intel(R) Core(TM) Ultra 7 265KF, instruction set [SSE2|AVX|AVX2]
Thread count: 20 physical cores, 20 logical processors, using up to 20 threads

Optimize a model with 4675 rows, 2340 columns and 22130 nonzeros
Model fingerprint: 0xc5ea856f
Variable types: 180 continuous, 2160 integer (2160 binary)
Coefficient statistics:
  Matrix range     [1e+00, 1e+02]
  Objective range  [5e+01, 3e+03]
  Bounds range     [1e+00, 1e+02]
  RHS range        [1e+00, 4e+02]
Found heuristic solution: objective -0.0000000
Presolve removed 3111 rows and 1543 columns
Presolve time: 0.01s
Presolved: 1564 rows, 797 columns, 7216 nonzeros
Variable types: 109 continuous, 688 integer (688 binary)

Root relaxation: objective 7.825811e+03, 310 iterations, 0.00 seconds (0.00 work units)

    Nodes    |    Current Node    |     Objective Bounds      |     Work
 Expl Unexpl |  Obj  Depth IntInf | Incumbent    BestBd   Gap | It/Node Time

     0     0 7825.81115    0   98   -0.00000 7825.81115      -     -    0s
H    0     0                    2484.7683678 7825.81115   215%     -    0s
H    0     0                    3184.6996487 7825.81115   146%     -    0s
H    0     0                    4463.9853588 7825.81115  75.3%     -    0s
     0     0 7812.63506    0   91 4463.98536 7812.63506  75.0%     -    0s
     0     0 7811.99293    0   87 4463.98536 7811.99293  75.0%     -    0s
     0     0 7808.80675    0   90 4463.98536 7808.80675  74.9%     -    0s
     0     0 7658.38238    0   84 4463.98536 7658.38238  71.6%     -    0s
     0     0 7641.02533    0   84 4463.98536 7641.02533  71.2%     -    0s
     0     0 7641.02533    0   88 4463.98536 7641.02533  71.2%     -    0s
     0     0 7641.02533    0   88 4463.98536 7641.02533  71.2%     -    0s
     0     0 7641.02533    0   80 4463.98536 7641.02533  71.2%     -    0s
     0     0 7641.02533    0   78 4463.98536 7641.02533  71.2%     -    0s
     0     0 7449.22219    0   68 4463.98536 7449.22219  66.9%     -    0s
H    0     0                    4568.0499339 7449.22219  63.1%     -    0s
H    0     0                    4812.6111766 7449.22219  54.8%     -    0s
     0     0 7429.32381    0   71 4812.61118 7429.32381  54.4%     -    0s
     0     0 7427.37818    0   53 4812.61118 7427.37818  54.3%     -    0s
     0     0 7426.52552    0   64 4812.61118 7426.52552  54.3%     -    0s
     0     0 7425.86218    0   64 4812.61118 7425.86218  54.3%     -    0s
     0     0 7425.39726    0   66 4812.61118 7425.39726  54.3%     -    0s
     0     0 7423.29197    0   63 4812.61118 7423.29197  54.2%     -    0s
     0     0 7423.29197    0   66 4812.61118 7423.29197  54.2%     -    0s
     0     0 7365.90522    0   81 4812.61118 7365.90522  53.1%     -    0s
     0     0 7358.92483    0   76 4812.61118 7358.92483  52.9%     -    0s
     0     0 7358.78668    0   85 4812.61118 7358.78668  52.9%     -    0s
     0     0 7358.26274    0   92 4812.61118 7358.26274  52.9%     -    0s
     0     0 7358.26274    0   89 4812.61118 7358.26274  52.9%     -    0s
     0     0 7357.55721    0   84 4812.61118 7357.55721  52.9%     -    0s
     0     0 7357.12316    0   77 4812.61118 7357.12316  52.9%     -    0s
     0     0 7356.82368    0   82 4812.61118 7356.82368  52.9%     -    0s
     0     0 7356.82368    0   81 4812.61118 7356.82368  52.9%     -    0s
     0     0 7356.70697    0   86 4812.61118 7356.70697  52.9%     -    0s
     0     0 7356.70697    0   81 4812.61118 7356.70697  52.9%     -    0s
     0     0 7356.69351    0   89 4812.61118 7356.69351  52.9%     -    0s
     0     0 7356.67637    0   89 4812.61118 7356.67637  52.9%     -    0s
     0     0 7356.67637    0   85 4812.61118 7356.67637  52.9%     -    0s
     0     0 7356.67637    0   66 4812.61118 7356.67637  52.9%     -    0s
H    0     0                    4960.6305053 7356.48803  48.3%     -    0s
     0     2 7356.48803    0   63 4960.63051 7356.48803  48.3%     -    0s
H 1166   685                    5230.3197630 7075.58633  35.3%  15.7    0s
* 2992  1383              38    5327.9933477 7027.17644  31.9%  15.0    0s
H 3885  1427                    5450.1280225 6848.58838  25.7%  15.0    1s
*15069  4354              49    5461.2155061 6321.43608  15.8%  13.0    2s
H18955  3831                    5603.8534586 6227.40437  11.1%  15.1    2s
*23691  3568              48    5627.1134165 6105.26970  8.50%  17.8    3s

Cutting planes:
  Learned: 41
  Gomory: 136
  Cover: 15
  MIR: 230
  StrongCG: 2
  Flow cover: 326
  Inf proof: 9

Explored 36596 nodes (964901 simplex iterations) in 4.99 seconds (5.59 work units)
Thread count was 20 (of 20 available processors)

Solution count 10: 5627.11 5627.11 5603.85 ... 4568.05

Optimal solution found (tolerance 1.00e-04)
Best objective 5.627113416496e+03, best bound 5.627113416496e+03, gap 0.0000%
